Version identifier: 22.1.1.0 | 2022-11-28 | 9160aff4d
CPXPARAM_Threads                                 1
CPXPARAM_MIP_Strategy_VariableSelect             3
CPXPARAM_TimeLimit                               599.99845637800001
Found incumbent of value 0.000000 after 0.00 sec. (0.38 ticks)

Root node processing (before b&c):
  Real time             =    0.00 sec. (0.43 ticks)
Sequential b&c:
  Real time             =    0.00 sec. (0.00 ticks)
                          ------------
Total (root+branch&cut) =    0.00 sec. (0.43 ticks)
Version identifier: 22.1.1.0 | 2022-11-28 | 9160aff4d
CPXPARAM_Threads                                 1
CPXPARAM_MIP_Strategy_VariableSelect             3
CPXPARAM_TimeLimit                               599.98776619
Found incumbent of value 0.000000 after 0.00 sec. (0.43 ticks)

Root node processing (before b&c):
  Real time             =    0.00 sec. (0.49 ticks)
Sequential b&c:
  Real time             =    0.00 sec. (0.00 ticks)
                          ------------
Total (root+branch&cut) =    0.00 sec. (0.49 ticks)
Version identifier: 22.1.1.0 | 2022-11-28 | 9160aff4d
CPXPARAM_Threads                                 1
CPXPARAM_MIP_Strategy_VariableSelect             3
CPXPARAM_TimeLimit                               599.97686589900002
Found incumbent of value 0.000000 after 0.00 sec. (0.45 ticks)

Root node processing (before b&c):
  Real time             =    0.00 sec. (0.52 ticks)
Sequential b&c:
  Real time             =    0.00 sec. (0.00 ticks)
                          ------------
Total (root+branch&cut) =    0.00 sec. (0.52 ticks)
Version identifier: 22.1.1.0 | 2022-11-28 | 9160aff4d
CPXPARAM_Threads                                 1
CPXPARAM_MIP_Strategy_VariableSelect             3
CPXPARAM_TimeLimit                               599.96539408700005
Found incumbent of value 0.000000 after 0.00 sec. (0.47 ticks)

Root node processing (before b&c):
  Real time             =    0.00 sec. (0.53 ticks)
Sequential b&c:
  Real time             =    0.00 sec. (0.00 ticks)
                          ------------
Total (root+branch&cut) =    0.00 sec. (0.53 ticks)
Version identifier: 22.1.1.0 | 2022-11-28 | 9160aff4d
CPXPARAM_Threads                                 1
CPXPARAM_MIP_Strategy_VariableSelect             3
CPXPARAM_TimeLimit                               599.95362112400005
Found incumbent of value 0.000000 after 0.00 sec. (0.47 ticks)

Root node processing (before b&c):
  Real time             =    0.00 sec. (0.54 ticks)
Sequential b&c:
  Real time             =    0.00 sec. (0.00 ticks)
                          ------------
Total (root+branch&cut) =    0.00 sec. (0.54 ticks)
Version identifier: 22.1.1.0 | 2022-11-28 | 9160aff4d
CPXPARAM_Threads                                 1
CPXPARAM_MIP_Strategy_VariableSelect             3
CPXPARAM_TimeLimit                               599.94164658600005
Found incumbent of value 0.000000 after 0.00 sec. (0.49 ticks)

Root node processing (before b&c):
  Real time             =    0.00 sec. (0.55 ticks)
Sequential b&c:
  Real time             =    0.00 sec. (0.00 ticks)
                          ------------
Total (root+branch&cut) =    0.00 sec. (0.55 ticks)
Version identifier: 22.1.1.0 | 2022-11-28 | 9160aff4d
CPXPARAM_Threads                                 1
CPXPARAM_MIP_Strategy_VariableSelect             3
CPXPARAM_TimeLimit                               599.92948420200003
Found incumbent of value 0.000000 after 0.00 sec. (0.49 ticks)

Root node processing (before b&c):
  Real time             =    0.00 sec. (0.55 ticks)
Sequential b&c:
  Real time             =    0.00 sec. (0.00 ticks)
                          ------------
Total (root+branch&cut) =    0.00 sec. (0.55 ticks)
Version identifier: 22.1.1.0 | 2022-11-28 | 9160aff4d
CPXPARAM_Threads                                 1
CPXPARAM_MIP_Strategy_VariableSelect             3
CPXPARAM_TimeLimit                               599.91742950699995
Tried aggregator 1 time.
MIP Presolve eliminated 329 rows and 1260 columns.
Reduced MIP has 1573 rows, 2520 columns, and 18162 nonzeros.
Reduced MIP has 2520 binaries, 0 generals, 0 SOSs, and 0 indicators.
Presolve time = 0.01 sec. (9.92 ticks)
Found incumbent of value 0.000000 after 0.03 sec. (30.38 ticks)

Root node processing (before b&c):
  Real time             =    0.03 sec. (30.52 ticks)
Sequential b&c:
  Real time             =    0.00 sec. (0.00 ticks)
                          ------------
Total (root+branch&cut) =    0.03 sec. (30.52 ticks)
Primal:	315
Dual:	315
Status:	Optimal
Time:	0.120946
Sequence:
	1
	9
	4
	6
	9
	0
	9
	10
	4
	1
	1
	0
	9
	1
	4
	4
	9
	10
	0
	9
	4
	9
	0
	1
	6
	9
	9
	1
	4
	4
	9
	0
	1
	4
	9
	5
	5
	9
	4
	9
	9
	9
	4
	4
	0
	9
	1
	9
	9
	4
	9
	4
	9
	9
	8
	4
	9
	4
	1
	4
	9
	4
	9
	4
	9
	1
	0
	9
	9
	9
	4
	4
	9
	9
	4
	4
	1
	4
	4
	9
	0
	6
	9
	0
	4
	9
	1
	9
	1
	1
	9
	0
	1
	6
	4
	1
	1
	9
	1
	9
	4
	9
	9
	1
	9
	4
	9
	9
	9
	9
	4
	4
	0
	4
	4
	9
	9
	6
	5
	1
	4
	9
	6
	1
	4
	1
	9
	9
	9
	1
	4
	1
	9
	9
	0
	4
	4
	9
	9
	0
	1
	9
	0
	9
	4
	0
	4
	4
	1
	1
	9
	9
	6
	4
	9
	4
	0
	9
	4
	10
	9
	9
	9
	9
	0
	4
	4
	9
	4
	4
	9
	4
	9
	0
	9
	9
	9
	4
	6
	9
	1
	4
	6
	9
	1
	4
	9
	0
	9
	6
	4
	9
	1
	6
	4
	9
	9
	9
	1
	4
	4
	9
	9
	0
	9
	4
	5
	9
	9
	4
	4
	0
	9
	9
	4
	6
	1
	1
	9
	9
	9
	1
	4
	4
	0
	4
	9
	4
	9
	4
	1
	1
	9
	9
	6
	9
	9
	4
	4
	9
	4
	0
	9
	9
	9
	6
	4
	9
	4
	9
	9
	4
	4
	9
	4
	9
	4
	0
	5
	4
	0
	4
	4
	0
	4
	4
	0
	4
	9
	0
	1
	1
	4
	1
	4
	10
	4
	9
	4
	9
	0
	4
	4
	1
	4
	1
	8
	4
	9
	9
	4
	6
	9
	4
	4
	1
	4
	4
	1
	9
	1
	0
	9
	4
	1
	6
	1
	9
	1
	9
	4
	4
	9
	9
	0
